certificates/rado_a13_c224_N32.cnf
c Rad2 upper bound instance: x1 + 13*x2 - x3 = 224, interval [1,32]
p cnf 32 158
1 11 18 0
-1 -11 -18 0
1 19 24 0
-1 -19 -24 0
2 12 18 0
-2 -12 -18 0
2 19 25 0
-2 -19 -25 0
3 13 18 0
-3 -13 -18 0
3 19 26 0
-3 -19 -26 0
1 4 17 0
-1 -4 -17 0
4 14 18 0
-4 -14 -18 0
4 19 27 0
-4 -19 -27 0
2 5 17 0
-2 -5 -17 0
5 15 18 0
-5 -15 -18 0
5 19 28 0
-5 -19 -28 0
3 6 17 0
-3 -6 -17 0
6 16 18 0
-6 -16 -18 0
6 19 29 0
-6 -19 -29 0
4 7 17 0
-4 -7 -17 0
7 17 18 0
-7 -17 -18 0
7 19 30 0
-7 -19 -30 0
5 8 17 0
-5 -8 -17 0
8 18 0
-8 -18 0
8 19 31 0
-8 -19 -31 0
6 9 17 0
-6 -9 -17 0
9 18 19 0
-9 -18 -19 0
9 19 32 0
-9 -19 -32 0
7 10 17 0
-7 -10 -17 0
10 18 20 0
-10 -18 -20 0
8 11 17 0
-8 -11 -17 0
11 18 21 0
-11 -18 -21 0
9 12 17 0
-9 -12 -17 0
12 18 22 0
-12 -18 -22 0
10 13 17 0
-10 -13 -17 0
13 18 23 0
-13 -18 -23 0
11 14 17 0
-11 -14 -17 0
14 18 24 0
-14 -18 -24 0
12 15 17 0
-12 -15 -17 0
15 18 25 0
-15 -18 -25 0
13 16 17 0
-13 -16 -17 0
16 18 26 0
-16 -18 -26 0
1 16 17 0
-1 -16 -17 0
14 17 0
-14 -17 0
17 18 27 0
-17 -18 -27 0
2 16 18 0
-2 -16 -18 0
15 17 18 0
-15 -17 -18 0
18 28 0
-18 -28 0
3 16 19 0
-3 -16 -19 0
16 17 19 0
-16 -17 -19 0
18 19 29 0
-18 -19 -29 0
4 16 20 0
-4 -16 -20 0
17 20 0
-17 -20 0
18 20 30 0
-18 -20 -30 0
5 16 21 0
-5 -16 -21 0
17 18 21 0
-17 -18 -21 0
18 21 31 0
-18 -21 -31 0
6 16 22 0
-6 -16 -22 0
17 19 22 0
-17 -19 -22 0
18 22 32 0
-18 -22 -32 0
7 16 23 0
-7 -16 -23 0
17 20 23 0
-17 -20 -23 0
8 16 24 0
-8 -16 -24 0
17 21 24 0
-17 -21 -24 0
9 16 25 0
-9 -16 -25 0
17 22 25 0
-17 -22 -25 0
10 16 26 0
-10 -16 -26 0
17 23 26 0
-17 -23 -26 0
11 16 27 0
-11 -16 -27 0
17 24 27 0
-17 -24 -27 0
12 16 28 0
-12 -16 -28 0
17 25 28 0
-17 -25 -28 0
13 16 29 0
-13 -16 -29 0
17 26 29 0
-17 -26 -29 0
1 15 30 0
-1 -15 -30 0
14 16 30 0
-14 -16 -30 0
17 27 30 0
-17 -27 -30 0
2 15 31 0
-2 -15 -31 0
15 16 31 0
-15 -16 -31 0
17 28 31 0
-17 -28 -31 0
3 15 32 0
-3 -15 -32 0
16 32 0
-16 -32 0
17 29 32 0
-17 -29 -32 0
