certificates/rado_a13_c224_N32.drat
17 -30 -31 16 0
-17 -31 -32 0
-31 -32 0
d -17 -31 -32 0
-32 0
16 0
17 31 0
31 0
-15 0
3 0
-19 0
9 0
-25 0
18 0
2 0
-8 0
-28 0
-21 0
0
